p cnf 10 9
-4 4 0
-9 -6 -2 -3 2 3 4 6 8 9 10 0
-10 -1 -6 -3 -9 -2 -7 -8 1 2 3 4 5 6 7 8 9 10 0
 1 2 3 5 6 7 9 10 0
-2 -9 -8 -7 -5 -3 2 3 4 5 7 8 9 10 0
-10 -8 -3 -2 -5 1 2 3 4 5 8 9 10 0
-4 4 0
-3 -9 9 2 3 0
-1 -8 -5 -3 1 3 4 5 7 8 9 0
